(set-option :produce-models true)
(set-logic QF_UF)
(declare-fun p31() Bool)
(declare-fun p56() Bool)
(declare-fun p20() Bool)
(declare-fun p34() Bool)
(declare-fun p38() Bool)
(declare-fun p6() Bool)
(declare-fun p57() Bool)
(declare-fun p33() Bool)
(declare-fun p17() Bool)
(declare-fun p19() Bool)
(declare-fun p13() Bool)
(declare-fun p48() Bool)
(declare-fun p37() Bool)
(declare-fun p44() Bool)
(declare-fun p42() Bool)
(declare-fun p22() Bool)
(declare-fun p8() Bool)
(declare-fun p58() Bool)
(declare-fun p35() Bool)
(declare-fun p50() Bool)
(declare-fun p52() Bool)
(declare-fun p51() Bool)
(declare-fun p30() Bool)
(declare-fun p5() Bool)
(declare-fun p23() Bool)
(declare-fun p12() Bool)
(declare-fun p59() Bool)
(declare-fun p3() Bool)
(declare-fun p2() Bool)
(declare-fun p43() Bool)
(declare-fun p32() Bool)
(declare-fun p46() Bool)
(declare-fun p25() Bool)
(declare-fun p40() Bool)
(declare-fun p41() Bool)
(declare-fun p45() Bool)
(declare-fun p55() Bool)
(declare-fun p24() Bool)
(declare-fun p26() Bool)
(declare-fun p27() Bool)
(declare-fun p16() Bool)
(declare-fun p7() Bool)
(declare-fun p1() Bool)
(declare-fun p28() Bool)
(declare-fun p36() Bool)
(declare-fun p29() Bool)
(declare-fun p18() Bool)
(declare-fun p15() Bool)
(declare-fun p47() Bool)
(declare-fun p10() Bool)
(declare-fun p53() Bool)
(declare-fun p49() Bool)
(declare-fun p4() Bool)
(declare-fun p39() Bool)
(declare-fun p0() Bool)
(declare-fun p21() Bool)
(declare-fun p11() Bool)
(declare-fun p54() Bool)
(declare-fun p9() Bool)
(declare-fun p14() Bool)
(assert
(and (or (not p31) (not p56) (not p20)) (or p34 (not p56) (not p38)) (or p6 (not p57) (not p33)) (or p17 (not p19) p13) (or (not p48) (not p37) p44) (or (not p33) (not p42) (not p22)) (or (not p8) p58 (not p35)) (or (not p50) p52 p51) (or p30 (not p5) p23) (or p38 (not p12) (not p59)) (or (not p59) p3 p2) (or (not p43) p42 p32) (or (not p46) p43 p19) (or (not p25) (not p34) p3) (or p40 (not p40) p41) (or (not p35) p45 p55) (or p6 p33 (not p8)) (or (not p35) p24 p38) (or (not p52) (not p26) p57) (or p57 p27 p16) (or p45 (not p31) p12) (or p44 p34 (not p55)) (or p19 (not p46) (not p34)) (or (not p7) (not p1) p51) (or p33 (not p28) p36) (or p3 p29 p46) (or p13 (not p18) (not p15)) (or p42 p47 p3) (or p10 p41 p53) (or p45 (not p29) p48) (or p35 (not p12) (not p3)) (or p36 (not p49) p38) (or (not p4) (not p48) p39) (or (not p0) (not p52) p6) (or p2 p20 (not p25)) (or (not p12) (not p22) (not p15)) (or p4 (not p12) p0) (or p27 (not p21) (not p52)) (or p52 p15 p6) (or p6 p43 p39) (or (not p11) p31 p24) (or (not p19) (not p12) p25) (or (not p12) p53 p39) (or p6 (not p28) (not p49)) (or (not p12) p33 p52) (or (not p45) (not p42) p1) (or (not p54) p2 p49) (or p55 (not p18) (not p0)) (or (not p10) p57 p9) (or p35 (not p8) (not p7)) (or p36 (not p44) p46) (or p9 p28 (not p14)) (or p38 (not p14) (not p20)) (or p26 p56 (not p20)) (or p51 p10 p7) (or (not p33) p20 p23) (or (not p27) (not p28) p28) (or p45 (not p51) p25) (or (not p51) (not p5) (not p6)) (or (not p58) (not p19) (not p33)) (or p19 p4 p48) (or (not p20) p56 p41) (or p15 p18 (not p34)) (or p37 p10 (not p3)) (or p25 (not p58) p40) (or (not p4) (not p18) (not p40)) (or p41 (not p25) (not p17)) (or p17 p36 p25) (or (not p14) p58 (not p27)) (or (not p51) (not p26) p56) (or p11 p40 p40) (or p33 p37 p34) (or (not p17) p52 p55) (or (not p9) p0 p33) (or p38 (not p41) p47) (or (not p3) (not p32) p29) (or p4 (not p5) (not p56)) (or p5 p6 p19) (or (not p3) (not p50) (not p11)) (or (not p29) p21 (not p39)) (or (not p24) p17 p50) (or (not p19) p35 p12) (or p40 p35 (not p37)) (or p11 (not p7) (not p22)) (or (not p56) (not p19) (not p34)) (or (not p54) (not p26) p54) (or p25 (not p23) (not p16)) (or p27 p28 p35) (or p10 (not p4) (not p37)) (or (not p18) (not p8) (not p4)) (or p53 p47 (not p3)) (or (not p26) (not p40) p2) (or p8 (not p33) (not p9)) (or p41 p25 (not p28)) (or p52 (not p33) p17) (or (not p6) (not p39) p11) (or (not p15) p16 (not p24)) (or (not p42) (not p34) (not p12)) (or (not p58) p56 p46) (or (not p58) p27 p54) (or (not p54) (not p33) p31) (or p44 (not p40) (not p26)) (or p22 p53 p43) (or (not p25) (not p26) p31) (or p53 (not p5) (not p48)) (or (not p8) p4 (not p34)) (or (not p17) p46 (not p11)) (or p25 p4 (not p47)) (or p0 p13 p32) (or (not p18) (not p2) (not p19)) (or p35 (not p14) (not p6)) (or (not p11) (not p23) p43) (or p28 p47 p8) (or p14 p42 p34) (or p17 (not p22) (not p46)) (or (not p25) p36 p19) (or (not p9) p10 p3) (or p47 p18 p23) (or (not p48) p27 (not p5)) (or p50 (not p34) (not p37)) (or (not p27) p27 (not p33)) (or (not p34) (not p30) (not p35)) (or p5 (not p13) p25) (or (not p2) p30 p36) (or (not p55) (not p15) (not p23)) (or (not p24) (not p19) (not p27)) (or (not p34) p12 p35) (or p37 (not p9) p43) (or p41 p44 (not p35)) (or (not p42) (not p14) (not p31)) (or p33 (not p50) (not p56)) (or (not p41) (not p49) p54) (or (not p4) (not p12) (not p0)) (or p23 (not p30) (not p50)) (or p0 (not p38) p21) (or p4 (not p36) p47) (or p33 (not p21) p38) (or (not p52) p12 p9) (or p38 p28 (not p30)) (or p57 p43 (not p12)) (or (not p45) p20 (not p28)) (or p43 (not p26) p12) (or (not p17) p49 (not p38)) (or p47 p40 p9) (or p43 (not p4) (not p55)) (or p30 (not p7) p25) (or p58 (not p41) p35) (or (not p56) (not p43) (not p30)) (or (not p27) p4 p30) (or p27 (not p41) (not p45)) (or (not p25) p12 (not p10)) (or p40 (not p58) (not p51)) (or p1 (not p26) (not p5)) (or p53 (not p7) p21) (or p45 (not p19) p41) (or p22 p28 (not p42)) (or p9 p6 p31) (or p50 p35 (not p9)) (or p8 p37 (not p49)) (or p56 p43 p2) (or p27 p6 (not p57)) (or (not p4) (not p44) (not p8)) (or p47 p14 p38) (or p23 (not p36) (not p2)) (or p28 (not p35) (not p44)) (or (not p55) p17 p31) (or (not p22) p15 p53) (or (not p42) (not p28) p26) (or p57 (not p38) p11) (or (not p25) (not p44) (not p58)) (or p32 (not p27) (not p38)) (or p59 p53 p3) (or p20 p58 (not p38)) (or p1 p54 (not p58)) (or (not p26) p58 p40) (or (not p45) (not p59) (not p53)) (or (not p28) p11 p15) (or p50 (not p56) p48) (or p14 (not p13) (not p50)) (or (not p48) (not p52) (not p18)) (or p36 p48 p40) (or (not p46) (not p19) (not p22)) (or p15 p27 p47) (or (not p59) (not p31) p29) (or p41 p20 p13) (or (not p15) (not p30) p35) (or p16 (not p27) (not p54)) (or p53 p32 (not p57)) (or (not p18) p22 p16) (or (not p15) p29 (not p6)) (or (not p46) p47 p13) (or p39 (not p2) p2) (or p18 p28 p34) (or (not p49) p11 (not p52)) (or (not p6) (not p0) (not p9)) (or (not p24) p14 (not p29)) (or (not p9) p30 p13) (or (not p48) (not p24) (not p27)) (or p0 p15 (not p51)) (or p9 p29 p16) (or p35 (not p9) (not p22)) (or (not p19) p45 p20) (or p14 (not p52) (not p56)) (or p51 p30 p4) (or p55 p23 p17) (or (not p28) (not p25) (not p40)) (or p22 (not p59) p26) (or p51 p1 p43) (or (not p11) p14 p28) (or p45 (not p37) p48) (or p19 (not p57) (not p48)) (or p13 p15 p39) (or (not p9) (not p45) (not p51)) (or p5 (not p48) (not p23)) (or p3 (not p52) p5) (or p15 p17 (not p1)) (or (not p46) p22 (not p53)) (or (not p56) p44 p32) (or p38 p48 p18) (or p45 p37 (not p59)) (or (not p50) p47 (not p42)) (or (not p22) (not p13) p53) (or p18 p9 p13) (or (not p17) p50 (not p5)) (or (not p5) p24 p58) (or (not p43) p12 (not p38)) (or (not p44) (not p9) p16) (or (not p23) p5 (not p43)) (or p49 p30 (not p27)) (or (not p20) (not p25) (not p13)) (or (not p6) p4 p19) (or (not p39) p9 p16) (or (not p18) (not p10) (not p22)) (or (not p46) (not p42) p35) (or (not p3) p31 p15) (or p45 (not p26) p39) (or p15 (not p15) p22) (or (not p7) (not p52) p36) (or p8 p10 p22) (or (not p15) p25 (not p51)) (or p49 (not p34) (not p2)) (or p17 p28 (not p44)) (or p45 (not p6) p0) (or (not p34) (not p0) p49) (or p54 (not p25) p2) (or p36 p51 p9) (or p45 (not p19) (not p11)) (or p46 p2 (not p26)) (or p44 p40 p33) (or (not p12) p20 p41) (or (not p3) (not p7) (not p26)) (or (not p48) (not p3) p50))
)
(check-sat)
(get-model)
